\* Problem: Unknown *\

Maximize
 obj: + xp_0_0 + xp_1_0 + xp_1_1 + xp_2_0 + xp_2_1 + xp_3_0 + xp_3_1
 + xp_3_2 + xp_4_0 + xp_4_1 + xp_5_0 + xp_6_0 + xp_7_0 + xp_8_0 + xp_9_0
 + xp_9_1 + xp_10_0 + xp_11_0 + xp_11_1 + xp_12_0 + xp_12_1 + xp_13_0
 + xp_13_1 + xp_13_2 + xp_14_0 + xp_14_1 + xp_15_0 + xp_16_0 + xp_17_0
 + xp_17_1 + xp_18_0 + xp_18_1 + xp_18_2 + xp_19_0 + xp_19_1 + xp_20_0
 + xp_21_0 + xp_22_0 + xp_22_1 + xp_23_0 + xp_24_0 + xp_24_1 + xp_24_2
 + xp_25_0 + xp_26_0 + xp_26_1 + xp_27_0 + xp_27_1 + xp_28_0 + xp_28_1
 + xp_29_0 + xp_30_0 + xp_30_1 + xp_31_0 + xp_32_0 + xp_32_1 + xp_33_0
 + xp_34_0 + xp_34_1 + xp_35_0 + xp_36_0 + xp_37_0 + xp_38_0 + xp_38_1
 + xp_39_0 + xp_40_0 + xp_40_1 + xp_40_2 + xp_41_0 + xp_41_1 + xp_42_0
 + xp_42_1 + xp_42_2 + xp_43_0 + xp_44_0 + xp_44_1 + xp_45_0 + xp_45_1
 + xp_46_0 + xp_47_0 + xp_48_0 + xp_48_1 + xp_49_0 + xp_50_0 + xp_50_1
 + xp_51_0 + xp_52_0 + xp_53_0 + xp_53_1 + xp_54_0 + xp_55_0 + xp_56_0
 + xp_57_0 + xp_57_1 + xp_58_0 + xp_58_1 + xp_59_0 + xp_60_0 + xp_60_1
 + xp_61_0 + xp_61_1 + xp_62_0 + xp_63_0 + xp_63_1 + xp_64_0 + xp_65_0
 + xp_65_1 + xp_66_0 + xp_67_0 + xp_67_1 + xp_68_0 + xp_68_1 + xp_68_2
 + xp_69_0 + xp_70_0 + xp_71_0 + xp_72_0 + xp_73_0 + xp_74_0 + xp_75_0
 + xp_76_0 + xp_77_0 + xp_77_1 + xp_78_0 + xp_78_1 + xp_78_2 + xp_78_3
 + xp_78_4 + xp_79_0 + xp_79_1 + xp_79_2 + xp_80_0 + xp_80_1 + xp_81_0
 + xp_81_1 + xp_81_2 + xp_82_0 + xp_82_1 + xp_82_2 + xp_83_0 + xp_83_1
 + xp_84_0 + xp_85_0 + xp_85_1 + xp_85_2 + xp_86_0 + xp_86_1 + xp_87_0
 + xp_88_0 + xp_88_1 + xp_89_0 + xp_90_0 + xp_90_1 + xp_91_0 + xp_91_1
 + xp_91_2 + xp_92_0 + xp_93_0 + xp_94_0 + xp_94_1 + xp_94_2 + xp_94_3
 + xp_95_0 + xp_95_1 + xp_95_2 + xp_96_0 + xp_97_0 + xp_98_0 + xp_98_1
 + xp_98_2 + xp_98_3 + xp_99_0 + xp_99_1 + xp_99_2 + xp_100_0 + xp_101_0
 + xp_102_0 + xp_103_0 + xp_104_0 + xp_104_1 + xp_105_0 + xp_105_1
 + xp_106_0 + xp_106_1 + xp_106_2 + xp_107_0 + xp_108_0 + xp_108_1
 + xp_108_2 + xp_109_0 + xp_109_1 + xp_110_0 + xp_111_0 + xp_111_1
 + xp_112_0 + xp_113_0 + xp_114_0 + xp_115_0 + xp_115_1 + xp_116_0
 + xp_116_1 + xp_117_0 + xp_118_0 + xp_119_0 + xp_119_1 + xp_119_2
 + xp_120_0 + xp_121_0 + xp_122_0 + xp_123_0 + xp_123_1 + xp_124_0
 + xp_124_1 + xp_124_2 + xp_125_0 + xp_125_1 + xp_126_0 + xp_126_1
 + xp_126_2 + xp_127_0 + xp_127_1 + xp_128_0 + xp_128_1 + xp_128_2
 + xp_129_0 + xp_129_1 + xp_130_0 + xp_131_0 + xp_131_1 + xp_131_2

Subject To
 r_1: + xp_128_2 + xp_128_1 + xp_123_1 + xp_122_0 + xp_121_0 + xp_108_1
 + xp_107_0 + xp_78_3 + xp_67_1 + xp_57_1 + xp_40_2 + xp_40_1 + xp_25_0
 + xp_22_1 + xp_18_2 + xp_18_1 + xp_16_0 + xp_13_2 + xp_13_1 + xp_4_1
 + xp_4_0 <= 39177.1539206196
 r_2: + xp_131_2 + xp_131_1 + xp_127_1 + xp_126_1 + xp_120_0 + xp_94_3
 + xp_94_2 + xp_94_1 + xp_93_0 + xp_90_1 + xp_85_2 + xp_85_1 + xp_85_0
 + xp_77_1 + xp_75_0 + xp_71_0 + xp_66_0 + xp_65_1 + xp_65_0 + xp_61_1
 + xp_55_0 + xp_52_0 + xp_48_1 + xp_48_0 + xp_42_2 + xp_42_1 + xp_38_1
 + xp_32_0 + xp_28_1 + xp_28_0 + xp_24_2 + xp_24_0 + xp_19_1 + xp_19_0
 + xp_12_1 + xp_1_1 <= 34846.6257668712
 r_3: + xp_124_1 + xp_114_0 + xp_106_2 + xp_105_1 + xp_98_3 + xp_95_2
 + xp_94_2 + xp_91_2 + xp_85_2 + xp_83_1 + xp_79_2 + xp_76_0 + xp_68_2
 + xp_41_1 + xp_34_0 + xp_24_2 <= 37043.4782608696
 r_4: + xp_119_2 + xp_117_0 + xp_104_1 + xp_95_1 + xp_95_0 + xp_91_1
 + xp_91_0 + xp_88_1 + xp_84_0 + xp_82_1 + xp_81_2 + xp_79_1 + xp_79_0
 + xp_78_4 + xp_46_0 + xp_44_1 + xp_43_0 + xp_40_2 + xp_40_1 + xp_40_0
 + xp_34_1 + xp_27_1 + xp_3_2 <= 35548.9205328434
 r_5: + xp_130_0 + xp_119_2 + xp_104_1 + xp_99_0 + xp_88_1 + xp_82_1
 + xp_81_2 + xp_78_4 + xp_44_1 + xp_27_1 + xp_7_0 + xp_3_2 + xp_2_0
 <= 37043.4782608696
 r_6: + xp_126_2 + xp_119_0 + xp_114_0 + xp_95_2 + xp_91_2 + xp_83_1
 + xp_83_0 + xp_82_2 + xp_81_0 + xp_79_2 + xp_70_0 + xp_68_2 + xp_68_1
 + xp_58_1 + xp_53_0 + xp_48_1 + xp_45_0 + xp_34_0 + xp_32_1 + xp_30_1
 + xp_18_2 <= 38895.0789229341
 r_7: + xp_119_1 + xp_111_1 + xp_104_0 + xp_88_0 + xp_82_0 + xp_81_1
 + xp_78_2 + xp_53_1 + xp_50_1 + xp_45_1 + xp_44_0 + xp_27_0 + xp_18_1
 + xp_18_0 + xp_4_1 + xp_3_1 <= 35548.9205328434
 r_8: + xp_131_2 + xp_131_1 + xp_127_1 + xp_126_1 + xp_120_0 + xp_118_0
 + xp_103_0 + xp_94_3 + xp_94_2 + xp_94_1 + xp_90_1 + xp_77_1 + xp_71_0
 + xp_61_1 + xp_55_0 + xp_42_2 + xp_42_1 + xp_38_1 + xp_32_0 + xp_24_2
 + xp_24_0 + xp_12_1 + xp_1_1 <= 39177.1539206196
 r_9: + xp_131_0 + xp_127_0 + xp_123_1 + xp_122_0 + xp_108_1 + xp_78_3
 + xp_77_0 + xp_67_1 + xp_57_1 + xp_42_0 + xp_33_0 + xp_32_1 + xp_24_1
 <= 39820.1058201058
 r_10: + xp_111_1 + xp_106_0 + xp_99_0 + xp_98_0 + xp_94_1 + xp_88_1
 + xp_88_0 + xp_85_0 + xp_78_4 + xp_78_2 + xp_50_1 + xp_26_0 + xp_24_0
 + xp_8_0 + xp_7_0 + xp_4_1 + xp_3_2 + xp_3_1 + xp_2_0
 <= 38895.0789229341
 r_11: + xp_119_0 + xp_112_0 + xp_111_0 + xp_95_2 + xp_91_2 + xp_82_2
 + xp_81_0 + xp_79_2 + xp_78_3 + xp_78_1 + xp_78_0 + xp_59_0 + xp_53_0
 + xp_50_0 + xp_49_0 + xp_45_0 + xp_34_0 + xp_18_2 + xp_4_0 + xp_3_0
 <= 36044.4209413009
 r_12: + xp_129_1 + xp_128_1 + xp_128_0 + xp_123_0 + xp_119_1 + xp_117_0
 + xp_111_1 + xp_108_2 + xp_101_0 + xp_95_0 + xp_91_1 + xp_82_1
 + xp_82_0 + xp_81_1 + xp_80_1 + xp_79_1 + xp_78_4 + xp_78_2 + xp_78_0
 + xp_73_0 + xp_63_1 + xp_60_1 + xp_50_1 + xp_46_0 + xp_45_1 + xp_44_1
 + xp_44_0 + xp_40_1 + xp_40_0 + xp_18_1 + xp_18_0 + xp_17_1 + xp_15_0
 + xp_14_0 + xp_13_1 + xp_13_0 + xp_9_0 + xp_4_1 <= 35837.0814592704
 r_13: + xp_129_0 + xp_128_2 + xp_123_1 + xp_119_2 + xp_109_1 + xp_100_0
 + xp_95_1 + xp_91_0 + xp_90_0 + xp_81_2 + xp_80_0 + xp_79_0 + xp_68_0
 + xp_63_0 + xp_60_0 + xp_53_1 + xp_40_2 + xp_34_1 + xp_31_0 + xp_30_0
 + xp_17_0 + xp_13_2 + xp_9_1 <= 36044.4209413009
 r_14: + xp_131_2 + xp_131_1 + xp_131_0 + xp_126_2 + xp_125_1 + xp_125_0
 + xp_124_2 + xp_124_1 + xp_124_0 + xp_115_1 + xp_115_0 + xp_106_2
 + xp_106_1 + xp_99_2 + xp_99_1 + xp_98_3 + xp_98_2 + xp_98_1 + xp_94_3
 + xp_94_2 + xp_94_0 + xp_86_1 + xp_86_0 + xp_85_2 + xp_85_1 + xp_77_1
 + xp_77_0 + xp_68_2 + xp_68_1 + xp_65_1 + xp_65_0 + xp_58_1 + xp_56_0
 + xp_51_0 + xp_48_1 + xp_41_1 + xp_41_0 + xp_38_1 + xp_38_0 + xp_35_0
 + xp_32_1 + xp_30_1 + xp_26_1 + xp_24_2 + xp_24_1 + xp_20_0 + xp_19_1
 + xp_19_0 + xp_12_1 + xp_12_0 + xp_2_1 + xp_0_0 <= 35548.9205328434
 r_15: + xp_131_2 + xp_131_0 + xp_126_2 + xp_125_0 + xp_124_1 + xp_124_0
 + xp_116_0 + xp_115_0 + xp_109_1 + xp_99_2 + xp_98_2 + xp_94_0
 + xp_90_0 + xp_89_0 + xp_86_0 + xp_85_2 + xp_85_1 + xp_77_1 + xp_77_0
 + xp_68_2 + xp_68_1 + xp_68_0 + xp_65_0 + xp_58_1 + xp_51_0 + xp_48_1
 + xp_42_1 + xp_42_0 + xp_38_0 + xp_36_0 + xp_32_1 + xp_28_0 + xp_26_1
 + xp_24_2 + xp_24_1 + xp_19_1 + xp_12_0 + xp_11_1 + xp_0_0
 <= 35837.0814592704
 r_16: + xp_128_0 + xp_123_0 + xp_108_2 + xp_108_0 + xp_78_4 + xp_78_2
 + xp_78_1 + xp_78_0 + xp_73_0 + xp_67_0 + xp_57_0 + xp_46_0 + xp_44_1
 + xp_44_0 + xp_40_0 + xp_22_0 + xp_18_0 + xp_13_0 + xp_6_0
 <= 39820.1058201058
 r_17: + xp_129_1 + xp_128_1 + xp_126_0 + xp_124_2 + xp_119_1 + xp_111_1
 + xp_109_0 + xp_97_0 + xp_95_0 + xp_91_1 + xp_81_1 + xp_80_1 + xp_79_1
 + xp_63_1 + xp_62_0 + xp_61_0 + xp_60_1 + xp_47_0 + xp_45_1 + xp_40_1
 + xp_22_1 + xp_18_1 + xp_17_1 + xp_13_1 + xp_9_0 + xp_4_1 + xp_1_0
 <= 34846.6257668712
 r_18: + xp_126_1 + xp_126_0 + xp_106_0 + xp_99_0 + xp_98_0 + xp_94_1
 + xp_92_0 + xp_85_0 + xp_68_0 + xp_58_0 + xp_48_0 + xp_32_0 + xp_30_0
 + xp_26_0 + xp_24_0 + xp_5_0 + xp_2_0 <= 36044.4209413009
 r_19: + xp_131_1 + xp_125_1 + xp_124_2 + xp_116_1 + xp_115_1 + xp_110_0
 + xp_108_2 + xp_106_2 + xp_106_1 + xp_99_1 + xp_98_3 + xp_98_1
 + xp_94_3 + xp_94_2 + xp_86_1 + xp_78_0 + xp_65_1 + xp_56_0 + xp_42_2
 + xp_38_1 + xp_28_1 + xp_19_0 + xp_14_0 + xp_12_1 + xp_11_0 + xp_3_0
 + xp_2_1 <= 36044.4209413009
 r_20: + xp_129_0 + xp_128_2 + xp_123_1 + xp_119_2 + xp_119_0 + xp_112_0
 + xp_111_0 + xp_108_1 + xp_108_0 + xp_107_0 + xp_95_2 + xp_95_1
 + xp_91_2 + xp_91_0 + xp_82_2 + xp_81_2 + xp_81_0 + xp_80_0 + xp_79_2
 + xp_79_0 + xp_78_3 + xp_78_1 + xp_69_0 + xp_64_0 + xp_63_0 + xp_60_0
 + xp_50_0 + xp_49_0 + xp_45_0 + xp_40_2 + xp_18_2 + xp_17_0 + xp_14_1
 + xp_13_2 + xp_10_0 + xp_9_1 + xp_4_0 <= 34846.6257668712
 r_21: + xp_124_1 + xp_113_0 + xp_106_2 + xp_105_1 + xp_99_2 + xp_99_1
 + xp_98_3 + xp_94_2 + xp_86_1 + xp_86_0 + xp_85_2 + xp_83_1 + xp_77_1
 + xp_77_0 + xp_68_2 + xp_65_1 + xp_65_0 + xp_41_1 + xp_38_1 + xp_38_0
 + xp_24_2 + xp_20_0 + xp_2_1 + xp_0_0 <= 35548.9205328434
 r_22: + xp_126_2 + xp_124_2 + xp_124_0 + xp_106_1 + xp_105_0 + xp_98_2
 + xp_98_1 + xp_94_3 + xp_94_0 + xp_85_1 + xp_83_0 + xp_68_1 + xp_58_1
 + xp_48_1 + xp_41_0 + xp_32_1 + xp_30_1 + xp_26_1 + xp_24_1
 <= 35548.9205328434
 r_23: + xp_128_2 + xp_128_1 + xp_128_0 + xp_119_2 + xp_119_1 + xp_117_0
 + xp_111_1 + xp_104_1 + xp_104_0 + xp_100_0 + xp_95_1 + xp_95_0
 + xp_91_1 + xp_91_0 + xp_84_0 + xp_82_1 + xp_82_0 + xp_81_2 + xp_81_1
 + xp_80_1 + xp_80_0 + xp_79_1 + xp_79_0 + xp_78_4 + xp_78_2 + xp_73_0
 + xp_60_1 + xp_60_0 + xp_53_1 + xp_50_1 + xp_46_0 + xp_45_1 + xp_44_1
 + xp_44_0 + xp_40_2 + xp_40_1 + xp_40_0 + xp_34_1 + xp_21_0 + xp_18_1
 + xp_18_0 + xp_15_0 + xp_9_1 + xp_9_0 + xp_4_1 + xp_3_2 + xp_3_1
 <= 35548.9205328434
 r_24: + xp_128_0 + xp_126_1 + xp_103_0 + xp_94_3 + xp_94_2 + xp_94_1
 + xp_90_1 + xp_61_1 + xp_40_0 + xp_39_0 + xp_38_1 + xp_22_0 + xp_18_0
 + xp_13_0 + xp_12_1 + xp_1_1 <= 39820.1058201058
 r_25: + xp_131_0 + xp_127_0 + xp_126_2 + xp_126_0 + xp_94_0 + xp_90_0
 + xp_89_0 + xp_77_0 + xp_74_0 + xp_61_0 + xp_42_0 + xp_38_0 + xp_32_1
 + xp_24_1 + xp_12_0 + xp_1_0 <= 39820.1058201058
 r_26: + xp_128_2 + xp_128_1 + xp_123_1 + xp_121_0 + xp_112_0 + xp_108_1
 + xp_107_0 + xp_81_2 + xp_81_1 + xp_81_0 + xp_79_2 + xp_79_1 + xp_79_0
 + xp_78_3 + xp_67_1 + xp_64_0 + xp_60_1 + xp_60_0 + xp_57_1 + xp_47_0
 + xp_40_2 + xp_40_1 + xp_37_0 + xp_29_0 + xp_25_0 + xp_22_1 + xp_18_2
 + xp_18_1 + xp_17_1 + xp_17_0 + xp_13_2 + xp_13_1 + xp_4_1 + xp_4_0
 <= 34846.6257668712
 r_27: + xp_131_2 + xp_127_1 + xp_125_0 + xp_116_0 + xp_115_0 + xp_108_0
 + xp_99_2 + xp_98_2 + xp_86_0 + xp_85_2 + xp_85_1 + xp_82_2 + xp_78_1
 + xp_77_1 + xp_72_0 + xp_67_0 + xp_65_0 + xp_58_1 + xp_57_0 + xp_52_0
 + xp_50_0 + xp_48_1 + xp_42_1 + xp_28_0 + xp_26_1 + xp_24_2 + xp_23_0
 + xp_19_1 + xp_14_1 + xp_11_1 <= 34846.6257668712
 r_28: + xp_131_1 + xp_126_1 + xp_126_0 + xp_125_1 + xp_124_2 + xp_120_0
 + xp_116_1 + xp_115_1 + xp_109_0 + xp_99_1 + xp_99_0 + xp_98_3
 + xp_98_1 + xp_98_0 + xp_96_0 + xp_94_3 + xp_94_2 + xp_94_1 + xp_92_0
 + xp_90_1 + xp_86_1 + xp_85_0 + xp_75_0 + xp_65_1 + xp_58_0 + xp_54_0
 + xp_48_0 + xp_42_2 + xp_38_1 + xp_32_0 + xp_28_1 + xp_26_0 + xp_24_0
 + xp_19_0 + xp_12_1 + xp_11_0 <= 34846.6257668712
 r_29: + xp_129_1 + xp_129_0 + xp_95_2 + xp_95_1 + xp_95_0 + xp_93_0
 + xp_87_0 + xp_71_0 + xp_62_0 + xp_49_0 + xp_45_1 + xp_45_0 + xp_10_0
 + xp_9_1 + xp_9_0 + xp_1_1 + xp_1_0 <= 34846.6257668712
 r_30: + xp_125_1 + xp_125_0 + xp_121_0 + xp_102_0 + xp_99_2 + xp_99_1
 + xp_99_0 + xp_96_0 + xp_92_0 + xp_57_1 + xp_57_0 + xp_37_0 + xp_26_1
 + xp_26_0 + xp_23_0 + xp_11_1 + xp_11_0 <= 34846.6257668712

Bounds
 0 <= xp_0_0 <= 234.517658426341
 0 <= xp_1_0 <= 103.68937172242
 0 <= xp_1_1 <= 77.7670287918152
 0 <= xp_2_0 <= 16.3301402216267
 0 <= xp_2_1 <= 97.98084132976
 0 <= xp_3_0 <= 51.7698198888474
 0 <= xp_3_1 <= 103.539639777695
 0 <= xp_3_2 <= 25.8849099444237
 0 <= xp_4_0 <= 672.053117407391
 0 <= xp_4_1 <= 112.008852901232
 0 <= xp_5_0 <= 1076.75048926083
 0 <= xp_6_0 <= 1780.95854179802
 0 <= xp_7_0 <= 634.376816815833
 0 <= xp_8_0 <= 1500.51996757368
 0 <= xp_9_0 <= 61.4649633098246
 0 <= xp_9_1 <= 46.0987224823685
 0 <= xp_10_0 <= 54.5024278800881
 0 <= xp_11_0 <= 17.6870859707017
 0 <= xp_11_1 <= 23.5827812942689
 0 <= xp_12_0 <= 1761.01611840989
 0 <= xp_12_1 <= 293.502686401649
 0 <= xp_13_0 <= 71.5531530857063
 0 <= xp_13_1 <= 107.329729628559
 0 <= xp_13_2 <= 71.5531530857063
 0 <= xp_14_0 <= 62.4569374436312
 0 <= xp_14_1 <= 156.142343609078
 0 <= xp_15_0 <= 504.01644243918
 0 <= xp_16_0 <= 2624.82906577794
 0 <= xp_17_0 <= 168.710468719476
 0 <= xp_17_1 <= 126.532851539607
 0 <= xp_18_0 <= 101.948737864986
 0 <= xp_18_1 <= 152.923106797479
 0 <= xp_18_2 <= 101.948737864986
 0 <= xp_19_0 <= 450.936468033984
 0 <= xp_19_1 <= 601.248624045312
 0 <= xp_20_0 <= 127.478034440687
 0 <= xp_21_0 <= 272.839678029527
 0 <= xp_22_0 <= 349.904838330442
 0 <= xp_22_1 <= 874.762095826105
 0 <= xp_23_0 <= 51.6855956699393
 0 <= xp_24_0 <= 193.491105571549
 0 <= xp_24_1 <= 96.7455527857745
 0 <= xp_24_2 <= 48.3727763928872
 0 <= xp_25_0 <= 575.354355854343
 0 <= xp_26_0 <= 8.72188578026135
 0 <= xp_26_1 <= 6.54141433519601
 0 <= xp_27_0 <= 287.934529707169
 0 <= xp_27_1 <= 47.9890882845281
 0 <= xp_28_0 <= 473.995187521714
 0 <= xp_28_1 <= 189.598075008686
 0 <= xp_29_0 <= 2433.61201411691
 0 <= xp_30_0 <= 52.0880002713891
 0 <= xp_30_1 <= 130.220000678473
 0 <= xp_31_0 <= 189.513850789777
 0 <= xp_32_0 <= 1598.71604857398
 0 <= xp_32_1 <= 639.486419429591
 0 <= xp_33_0 <= 8013.36357606675
 0 <= xp_34_0 <= 72.5638437126035
 0 <= xp_34_1 <= 435.383062275621
 0 <= xp_35_0 <= 259.541609688593
 0 <= xp_36_0 <= 317.122900682099
 0 <= xp_37_0 <= 362.781785576836
 0 <= xp_38_0 <= 285.351653660654
 0 <= xp_38_1 <= 47.5586089434423
 0 <= xp_39_0 <= 1564.45550797147
 0 <= xp_40_0 <= 361.855319168847
 0 <= xp_40_1 <= 361.855319168847
 0 <= xp_40_2 <= 120.618439722949
 0 <= xp_41_0 <= 68.1093183570194
 0 <= xp_41_1 <= 11.3515530595032
 0 <= xp_42_0 <= 193.547255050821
 0 <= xp_42_1 <= 129.031503367214
 0 <= xp_42_2 <= 129.031503367214
 0 <= xp_43_0 <= 489.277204130262
 0 <= xp_44_0 <= 390.856525212871
 0 <= xp_44_1 <= 65.1427542021451
 0 <= xp_45_0 <= 30.2271363414637
 0 <= xp_45_1 <= 12.0908545365855
 0 <= xp_46_0 <= 1596.48878589619
 0 <= xp_47_0 <= 874.004077855932
 0 <= xp_48_0 <= 2477.2588760044
 0 <= xp_48_1 <= 412.876479334067
 0 <= xp_49_0 <= 87.5838294178819
 0 <= xp_50_0 <= 445.677133475501
 0 <= xp_50_1 <= 334.257850106625
 0 <= xp_51_0 <= 705.583714779361
 0 <= xp_52_0 <= 658.680183094093
 0 <= xp_53_0 <= 134.899123951145
 0 <= xp_53_1 <= 53.9596495804581
 0 <= xp_54_0 <= 3672.82166340493
 0 <= xp_55_0 <= 1178.54949518109
 0 <= xp_56_0 <= 95.2482333385193
 0 <= xp_57_0 <= 117.090380775354
 0 <= xp_57_1 <= 87.8177855815156
 0 <= xp_58_0 <= 3875.2124614411
 0 <= xp_58_1 <= 645.868743573516
 0 <= xp_59_0 <= 10584.8038453035
 0 <= xp_60_0 <= 481.48178475799
 0 <= xp_60_1 <= 192.592713903196
 0 <= xp_61_0 <= 1375.17561334533
 0 <= xp_61_1 <= 1031.381710009
 0 <= xp_62_0 <= 130.491389828288
 0 <= xp_63_0 <= 74.9034053489397
 0 <= xp_63_1 <= 56.1775540117048
 0 <= xp_64_0 <= 988.839121213858
 0 <= xp_65_0 <= 445.265370627505
 0 <= xp_65_1 <= 74.2108951045842
 0 <= xp_66_0 <= 1670.6435315215
 0 <= xp_67_0 <= 229.913401126031
 0 <= xp_67_1 <= 172.435050844523
 0 <= xp_68_0 <= 418.613084466363
 0 <= xp_68_1 <= 627.919626699545
 0 <= xp_68_2 <= 418.613084466363
 0 <= xp_69_0 <= 1709.0310588505
 0 <= xp_70_0 <= 628.153582863179
 0 <= xp_71_0 <= 70.486312979537
 0 <= xp_72_0 <= 595.727258583559
 0 <= xp_73_0 <= 917.894254153599
 0 <= xp_74_0 <= 947.962300303792
 0 <= xp_75_0 <= 1754.23138966452
 0 <= xp_76_0 <= 1712.56847604464
 0 <= xp_77_0 <= 406.428647464324
 0 <= xp_77_1 <= 162.57145898573
 0 <= xp_78_0 <= 3976.96467612863
 0 <= xp_78_1 <= 3976.96467612863
 0 <= xp_78_2 <= 11930.8940283859
 0 <= xp_78_3 <= 3976.96467612863
 0 <= xp_78_4 <= 3976.96467612863
 0 <= xp_79_0 <= 605.590850442352
 0 <= xp_79_1 <= 302.795425221176
 0 <= xp_79_2 <= 151.397712610588
 0 <= xp_80_0 <= 160.213180856303
 0 <= xp_80_1 <= 64.0852723425212
 0 <= xp_81_0 <= 148.309491250624
 0 <= xp_81_1 <= 74.1547456253122
 0 <= xp_81_2 <= 37.0773728126561
 0 <= xp_82_0 <= 156.189134841805
 0 <= xp_82_1 <= 31.2378269683609
 0 <= xp_82_2 <= 31.2378269683609
 0 <= xp_83_0 <= 358.046512824892
 0 <= xp_83_1 <= 143.218605129957
 0 <= xp_84_0 <= 885.467929873979
 0 <= xp_85_0 <= 116.17327261391
 0 <= xp_85_1 <= 174.259908920865
 0 <= xp_85_2 <= 116.17327261391
 0 <= xp_86_0 <= 146.213244024467
 0 <= xp_86_1 <= 24.3688740040778
 0 <= xp_87_0 <= 140.57957960417
 0 <= xp_88_0 <= 362.669486618292
 0 <= xp_88_1 <= 60.444914436382
 0 <= xp_89_0 <= 2209.83762272463
 0 <= xp_90_0 <= 18510.9672800607
 0 <= xp_90_1 <= 3085.16121334345
 0 <= xp_91_0 <= 773.721107876017
 0 <= xp_91_1 <= 1160.58166181403
 0 <= xp_91_2 <= 773.721107876017
 0 <= xp_92_0 <= 66.5558494304922
 0 <= xp_93_0 <= 129.836312570114
 0 <= xp_94_0 <= 134.833616225328
 0 <= xp_94_1 <= 33.708404056332
 0 <= xp_94_2 <= 33.708404056332
 0 <= xp_94_3 <= 33.708404056332
 0 <= xp_95_0 <= 34.8875431210454
 0 <= xp_95_1 <= 17.4437715605227
 0 <= xp_95_2 <= 8.72188578026135
 0 <= xp_96_0 <= 114.900551083743
 0 <= xp_97_0 <= 525.109930152387
 0 <= xp_98_0 <= 61.0344839687387
 0 <= xp_98_1 <= 40.6896559791592
 0 <= xp_98_2 <= 20.3448279895796
 0 <= xp_98_3 <= 20.3448279895796
 0 <= xp_99_0 <= 2.33020338979085
 0 <= xp_99_1 <= 11.6510169489543
 0 <= xp_99_2 <= 2.33020338979085
 0 <= xp_100_0 <= 501.068594777396
 0 <= xp_101_0 <= 248.929358106172
 0 <= xp_102_0 <= 74.6788074318515
 0 <= xp_103_0 <= 1434.35716449809
 0 <= xp_104_0 <= 112.63585541977
 0 <= xp_104_1 <= 18.7726425699617
 0 <= xp_105_0 <= 1031.74668162426
 0 <= xp_105_1 <= 412.698672649705
 0 <= xp_106_0 <= 17.6870859707017
 0 <= xp_106_1 <= 17.6870859707017
 0 <= xp_106_2 <= 5.89569532356722
 0 <= xp_107_0 <= 448.072844591109
 0 <= xp_108_0 <= 120.843037640037
 0 <= xp_108_1 <= 604.215188200187
 0 <= xp_108_2 <= 120.843037640037
 0 <= xp_109_0 <= 825.509644257955
 0 <= xp_109_1 <= 137.584940709659
 0 <= xp_110_0 <= 132.71865250608
 0 <= xp_111_0 <= 2497.75343593871
 0 <= xp_111_1 <= 416.292239323118
 0 <= xp_112_0 <= 4663.95355502239
 0 <= xp_113_0 <= 423.834986038666
 0 <= xp_114_0 <= 2388.93574510944
 0 <= xp_115_0 <= 62.887416784717
 0 <= xp_115_1 <= 157.218541961793
 0 <= xp_116_0 <= 45.462361717285
 0 <= xp_116_1 <= 113.655904293213
 0 <= xp_117_0 <= 1936.08083653366
 0 <= xp_118_0 <= 3143.0606847195
 0 <= xp_119_0 <= 35.7485018032171
 0 <= xp_119_1 <= 17.8742509016086
 0 <= xp_119_2 <= 8.93712545080428
 0 <= xp_120_0 <= 2161.62393652301
 0 <= xp_121_0 <= 75.2683769642082
 0 <= xp_122_0 <= 2266.37079010506
 0 <= xp_123_0 <= 438.808180511217
 0 <= xp_123_1 <= 73.1346967518696
 0 <= xp_124_0 <= 97.98084132976
 0 <= xp_124_1 <= 19.596168265952
 0 <= xp_124_2 <= 19.596168265952
 0 <= xp_125_0 <= 11.6510169489543
 0 <= xp_125_1 <= 15.5346892652724
 0 <= xp_126_0 <= 3612.19894228418
 0 <= xp_126_1 <= 14448.7957691367
 0 <= xp_126_2 <= 7224.39788456837
 0 <= xp_127_0 <= 328.39958776924
 0 <= xp_127_1 <= 246.29969082693
 0 <= xp_128_0 <= 57.8058889105948
 0 <= xp_128_1 <= 173.417666731784
 0 <= xp_128_2 <= 173.417666731784
 0 <= xp_129_0 <= 27.8875747051275
 0 <= xp_129_1 <= 20.9156810288456
 0 <= xp_130_0 <= 402.151928793102
 0 <= xp_131_0 <= 437.104979639965
 0 <= xp_131_1 <= 218.552489819982
 0 <= xp_131_2 <= 109.276244909991

End
